Gurobi Optimizer version 9.1.2 build v9.1.2rc0 (linux64)
Thread count: 36 physical cores, 72 logical processors, using up to 32 threads
Optimize a model with 12 rows, 57 columns and 590 nonzeros
Model fingerprint: 0xf32eec78
Model has 47 quadratic constraints
Coefficient statistics:
  Matrix range     [2e-05, 3e+00]
  QMatrix range    [1e+00, 1e+00]
  QLMatrix range   [1e+00, 1e+00]
  Objective range  [8e-03, 7e-01]
  Bounds range     [1e+00, 1e+00]
  RHS range        [1e+00, 1e+00]
Presolve removed 9 rows and 0 columns

Continuous model is non-convex -- solving as a MIP.

Presolve removed 9 rows and 0 columns
Presolve time: 0.00s
Presolved: 189 rows, 57 columns, 443 nonzeros
Presolved model has 47 bilinear constraint(s)
Variable types: 57 continuous, 0 integer (0 binary)

Root relaxation: objective -1.743721e+00, 44 iterations, 0.00 seconds

    Nodes    |    Current Node    |     Objective Bounds      |     Work
 Expl Unexpl |  Obj  Depth IntInf | Incumbent    BestBd   Gap | It/Node Time

     0     0   -1.74372    0   38          -   -1.74372      -     -    0s
H    0     0                       0.6147548   -1.74372   384%     -    0s
     0     0   -1.64739    0    1    0.61475   -1.64739   368%     -    0s
H    0     0                      -1.6450460   -1.64739  0.14%     -    0s
     0     0     cutoff    0        -1.64505   -1.64505  0.00%     -    0s

Cutting planes:
  RLT: 25
  BQP: 3

Explored 1 nodes (76 simplex iterations) in 0.01 seconds
Thread count was 32 (of 72 available processors)

Solution count 2: -1.64505 0.614755 
No other solutions better than -1.64505

Optimal solution found (tolerance 1.00e-04)
Best objective -1.645045978473e+00, best bound -1.645045978473e+00, gap 0.0000%

User-callback calls 78, time in user-callback 0.00 sec
Gurobi Optimizer version 9.1.2 build v9.1.2rc0 (linux64)
Thread count: 36 physical cores, 72 logical processors, using up to 32 threads
Optimize a model with 60 rows, 300 columns and 15500 nonzeros
Model fingerprint: 0x17cee0c3
Model has 250 quadratic constraints
Coefficient statistics:
  Matrix range     [1e-06, 4e+00]
  QMatrix range    [1e+00, 1e+00]
  QLMatrix range   [1e+00, 1e+00]
  Objective range  [4e-04, 2e+00]
  Bounds range     [1e+00, 1e+00]
  RHS range        [1e+00, 1e+00]
Presolve removed 10 rows and 0 columns

Continuous model is non-convex -- solving as a MIP.

Presolve removed 10 rows and 0 columns
Presolve time: 0.01s
Presolved: 1050 rows, 300 columns, 14463 nonzeros
Presolved model has 250 bilinear constraint(s)
Variable types: 300 continuous, 0 integer (0 binary)

Root relaxation: objective -3.830812e+01, 382 iterations, 0.02 seconds

    Nodes    |    Current Node    |     Objective Bounds      |     Work
 Expl Unexpl |  Obj  Depth IntInf | Incumbent    BestBd   Gap | It/Node Time

     0     0  -38.30812    0  199          -  -38.30812      -     -    0s
     0     0  -34.98240    0  200          -  -34.98240      -     -    0s
     0     0  -34.25811    0  151          -  -34.25811      -     -    0s
     0     0  -34.25466    0  142          -  -34.25466      -     -    0s
H    0     0                     -28.7148103  -34.25466  19.3%     -    0s
     0     2  -34.25466    0  142  -28.71481  -34.25466  19.3%     -    0s
* 1607  1308              58     -28.7529142  -32.20880  12.0%  58.4    1s
* 1726  1401              66     -28.7529327  -32.20880  12.0%  57.1    1s
* 1729  1401              66     -28.7529368  -32.20880  12.0%  57.0    1s
* 1859  1521              65     -28.7529420  -32.20880  12.0%  55.2    1s
* 2175  1823             106     -29.6456308  -32.20880  8.65%  50.9    2s
* 2339  1788              59     -30.7871367  -31.87310  3.53%  49.3    2s
* 2544  1739              61     -30.9401490  -31.87310  3.02%  49.2    2s
* 3270  1720              62     -30.9476969  -31.86042  2.95%  51.5    2s
* 3410  1712              66     -30.9477622  -31.65426  2.28%  51.4    2s
* 3417  1712              66     -30.9478023  -31.65426  2.28%  51.3    2s
* 3955  1831              69     -30.9539185  -31.36608  1.33%  49.6    3s
* 3960  1831              69     -30.9539231  -31.36608  1.33%  49.5    3s
* 4265  1782              52     -30.9672621  -31.36608  1.29%  47.9    3s
* 4857  1817              53     -30.9694684  -31.10947  0.45%  45.4    3s
* 5072  1830              63     -30.9751815  -31.08995  0.37%  44.3    3s
* 5073  1830              63     -30.9751986  -31.08995  0.37%  44.3    3s
* 5085  1830              73     -30.9752309  -31.08995  0.37%  44.2    3s
* 5086  1830              73     -30.9752312  -31.08995  0.37%  44.2    3s
* 5088  1830              73     -30.9752612  -31.08995  0.37%  44.2    3s
* 5199  1830              65     -30.9799540  -31.08995  0.36%  43.5    3s
* 5200  1830              65     -30.9799541  -31.08995  0.36%  43.5    3s
* 5201  1830              64     -30.9799551  -31.08995  0.36%  43.5    3s
* 5364  1875              70     -30.9927079  -31.08995  0.31%  42.8    3s
* 5365  1875              70     -30.9927127  -31.08995  0.31%  42.8    3s
* 5366  1875              69     -30.9927181  -31.08995  0.31%  42.8    3s
* 5367  1875              68     -30.9927238  -31.08995  0.31%  42.8    3s
* 5723  1851              57     -30.9946749  -31.08995  0.31%  41.0    3s
* 5936  1851              64     -30.9950385  -31.08995  0.31%  40.1    3s
* 6070  1851              61     -30.9954927  -31.08995  0.30%  39.6    3s
* 6251  1901              61     -30.9955652  -31.04123  0.15%  38.8    4s
* 6253  1901              62     -30.9955718  -31.04123  0.15%  38.7    4s
* 6255  1901              60     -30.9955907  -31.04123  0.15%  38.7    4s
* 6266  1901              40     -31.0014856  -31.04123  0.13%  38.7    4s
* 6267  1901              40     -31.0014856  -31.04123  0.13%  38.7    4s
* 6697  1770              45     -31.0016526  -31.02587  0.08%  36.9    4s
* 6699  1770              46     -31.0016533  -31.02587  0.08%  36.9    4s
* 6716  1770              52     -31.0036577  -31.02587  0.07%  36.8    4s
* 6719  1770              52     -31.0036660  -31.02587  0.07%  36.8    4s
* 7420  1421              58     -31.0038439  -31.01616  0.04%  34.0    4s
* 7421  1421              58     -31.0038442  -31.01616  0.04%  34.0    4s
* 8036  1356              51     -31.0039259  -31.01616  0.04%  31.7    4s
* 8310  1356              56     -31.0039303  -31.01358  0.03%  30.7    4s
* 8849   944              45     -31.0039406  -31.00756  0.01%  29.0    4s
* 8914   944              49     -31.0039581  -31.00756  0.01%  28.8    4s
* 8973   944              53     -31.0043158  -31.00756  0.01%  28.6    4s
* 8974   944              53     -31.0043172  -31.00756  0.01%  28.6    4s
* 8977   944              54     -31.0043244  -31.00756  0.01%  28.6    4s
* 8978   944              54     -31.0043256  -31.00756  0.01%  28.6    4s
* 9248   944              38     -31.0051774  -31.00756  0.01%  27.9    4s
* 9249   944              38     -31.0051775  -31.00756  0.01%  27.9    4s

Cutting planes:
  RLT: 64
  BQP: 6
  PSD: 2

Explored 9741 nodes (259232 simplex iterations) in 4.64 seconds
Thread count was 32 (of 72 available processors)

Solution count 10: -31.0052 -31.0043 -31.0043 ... -31.0037

Optimal solution found (tolerance 1.00e-04)
Best objective -3.100517752708e+01, best bound -3.100755900742e+01, gap 0.0077%

User-callback calls 20074, time in user-callback 0.01 sec



objective value: -31.005177527084676
objective bound: -31.007559007418504
x_opt: [0.0, 1.0, 1.0, 0.0, 0.0, 0.0, 1.0, 1.0, 7.218733416937056e-6, 0.0, 0.1273518352360869, 0.31970738543730065, 0.0, 1.0, 1.0, 1.0, 0.0, 1.0, 0.0, 0.0, 0.0, 1.0, 1.0, 1.0, 0.0, 1.0, 1.0, 1.0, 0.0, 0.7587390256633262, 0.8820653333784485, 0.6992249650989102, 0.0, 0.29909595842811526, 1.0, 1.0, 0.993685958867093, 1.0, 0.6349556362604589, 1.0, 0.9773758643976899, 0.454777801539836, 1.0, 0.0, 0.0, 0.7783691258054, 0.0, 0.0, 0.0, 1.0]
GUROBI solution time: 4.637083053588867

